c File: flat50_3_0.col
c
c SOURCE: Joseph Culberson (joe@cs.ualberta.ca)
c DESCRIPTION: Quasi-random coloring problem
c              generated with flatness = 0
c                             probability = 0.139
c                             known coloring = 3
c                             random seed = 1632
c              Creation Date:  Tue Jun  9 12:14:05 1998
c Maximum degree = 8 Minimum degree = 1
c p edge 50 115
c cnf created by edge2cnf
p cnf 150 545
-1 -2 0
-1 -3 0
-2 -3 0
1 2 3 0
-4 -5 0
-4 -6 0
-5 -6 0
4 5 6 0
-7 -8 0
-7 -9 0
-8 -9 0
7 8 9 0
-10 -11 0
-10 -12 0
-11 -12 0
10 11 12 0
-13 -14 0
-13 -15 0
-14 -15 0
13 14 15 0
-16 -17 0
-16 -18 0
-17 -18 0
16 17 18 0
-19 -20 0
-19 -21 0
-20 -21 0
19 20 21 0
-22 -23 0
-22 -24 0
-23 -24 0
22 23 24 0
-25 -26 0
-25 -27 0
-26 -27 0
25 26 27 0
-28 -29 0
-28 -30 0
-29 -30 0
28 29 30 0
-31 -32 0
-31 -33 0
-32 -33 0
31 32 33 0
-34 -35 0
-34 -36 0
-35 -36 0
34 35 36 0
-37 -38 0
-37 -39 0
-38 -39 0
37 38 39 0
-40 -41 0
-40 -42 0
-41 -42 0
40 41 42 0
-43 -44 0
-43 -45 0
-44 -45 0
43 44 45 0
-46 -47 0
-46 -48 0
-47 -48 0
46 47 48 0
-49 -50 0
-49 -51 0
-50 -51 0
49 50 51 0
-52 -53 0
-52 -54 0
-53 -54 0
52 53 54 0
-55 -56 0
-55 -57 0
-56 -57 0
55 56 57 0
-58 -59 0
-58 -60 0
-59 -60 0
58 59 60 0
-61 -62 0
-61 -63 0
-62 -63 0
61 62 63 0
-64 -65 0
-64 -66 0
-65 -66 0
64 65 66 0
-67 -68 0
-67 -69 0
-68 -69 0
67 68 69 0
-70 -71 0
-70 -72 0
-71 -72 0
70 71 72 0
-73 -74 0
-73 -75 0
-74 -75 0
73 74 75 0
-76 -77 0
-76 -78 0
-77 -78 0
76 77 78 0
-79 -80 0
-79 -81 0
-80 -81 0
79 80 81 0
-82 -83 0
-82 -84 0
-83 -84 0
82 83 84 0
-85 -86 0
-85 -87 0
-86 -87 0
85 86 87 0
-88 -89 0
-88 -90 0
-89 -90 0
88 89 90 0
-91 -92 0
-91 -93 0
-92 -93 0
91 92 93 0
-94 -95 0
-94 -96 0
-95 -96 0
94 95 96 0
-97 -98 0
-97 -99 0
-98 -99 0
97 98 99 0
-100 -101 0
-100 -102 0
-101 -102 0
100 101 102 0
-103 -104 0
-103 -105 0
-104 -105 0
103 104 105 0
-106 -107 0
-106 -108 0
-107 -108 0
106 107 108 0
-109 -110 0
-109 -111 0
-110 -111 0
109 110 111 0
-112 -113 0
-112 -114 0
-113 -114 0
112 113 114 0
-115 -116 0
-115 -117 0
-116 -117 0
115 116 117 0
-118 -119 0
-118 -120 0
-119 -120 0
118 119 120 0
-121 -122 0
-121 -123 0
-122 -123 0
121 122 123 0
-124 -125 0
-124 -126 0
-125 -126 0
124 125 126 0
-127 -128 0
-127 -129 0
-128 -129 0
127 128 129 0
-130 -131 0
-130 -132 0
-131 -132 0
130 131 132 0
-133 -134 0
-133 -135 0
-134 -135 0
133 134 135 0
-136 -137 0
-136 -138 0
-137 -138 0
136 137 138 0
-139 -140 0
-139 -141 0
-140 -141 0
139 140 141 0
-142 -143 0
-142 -144 0
-143 -144 0
142 143 144 0
-145 -146 0
-145 -147 0
-146 -147 0
145 146 147 0
-148 -149 0
-148 -150 0
-149 -150 0
148 149 150 0
-73 -1 0
-74 -2 0
-75 -3 0
-85 -1 0
-86 -2 0
-87 -3 0
-88 -1 0
-89 -2 0
-90 -3 0
-133 -1 0
-134 -2 0
-135 -3 0
-97 -4 0
-98 -5 0
-99 -6 0
-106 -4 0
-107 -5 0
-108 -6 0
-94 -7 0
-95 -8 0
-96 -9 0
-97 -7 0
-98 -8 0
-99 -9 0
-115 -7 0
-116 -8 0
-117 -9 0
-130 -7 0
-131 -8 0
-132 -9 0
-148 -7 0
-149 -8 0
-150 -9 0
-79 -10 0
-80 -11 0
-81 -12 0
-124 -10 0
-125 -11 0
-126 -12 0
-64 -13 0
-65 -14 0
-66 -15 0
-85 -13 0
-86 -14 0
-87 -15 0
-91 -13 0
-92 -14 0
-93 -15 0
-103 -13 0
-104 -14 0
-105 -15 0
-109 -13 0
-110 -14 0
-111 -15 0
-121 -13 0
-122 -14 0
-123 -15 0
-142 -13 0
-143 -14 0
-144 -15 0
-76 -16 0
-77 -17 0
-78 -18 0
-79 -16 0
-80 -17 0
-81 -18 0
-82 -16 0
-83 -17 0
-84 -18 0
-94 -16 0
-95 -17 0
-96 -18 0
-112 -16 0
-113 -17 0
-114 -18 0
-115 -16 0
-116 -17 0
-117 -18 0
-133 -16 0
-134 -17 0
-135 -18 0
-142 -16 0
-143 -17 0
-144 -18 0
-52 -19 0
-53 -20 0
-54 -21 0
-88 -19 0
-89 -20 0
-90 -21 0
-91 -19 0
-92 -20 0
-93 -21 0
-97 -19 0
-98 -20 0
-99 -21 0
-115 -19 0
-116 -20 0
-117 -21 0
-118 -19 0
-119 -20 0
-120 -21 0
-148 -19 0
-149 -20 0
-150 -21 0
-52 -22 0
-53 -23 0
-54 -24 0
-64 -22 0
-65 -23 0
-66 -24 0
-76 -22 0
-77 -23 0
-78 -24 0
-94 -22 0
-95 -23 0
-96 -24 0
-118 -22 0
-119 -23 0
-120 -24 0
-121 -22 0
-122 -23 0
-123 -24 0
-130 -22 0
-131 -23 0
-132 -24 0
-139 -22 0
-140 -23 0
-141 -24 0
-61 -25 0
-62 -26 0
-63 -27 0
-100 -28 0
-101 -29 0
-102 -30 0
-106 -28 0
-107 -29 0
-108 -30 0
-136 -28 0
-137 -29 0
-138 -30 0
-139 -28 0
-140 -29 0
-141 -30 0
-148 -28 0
-149 -29 0
-150 -30 0
-127 -31 0
-128 -32 0
-129 -33 0
-139 -31 0
-140 -32 0
-141 -33 0
-52 -34 0
-53 -35 0
-54 -36 0
-76 -34 0
-77 -35 0
-78 -36 0
-94 -34 0
-95 -35 0
-96 -36 0
-112 -34 0
-113 -35 0
-114 -36 0
-133 -34 0
-134 -35 0
-135 -36 0
-61 -37 0
-62 -38 0
-63 -39 0
-106 -37 0
-107 -38 0
-108 -39 0
-115 -37 0
-116 -38 0
-117 -39 0
-121 -37 0
-122 -38 0
-123 -39 0
-124 -37 0
-125 -38 0
-126 -39 0
-55 -40 0
-56 -41 0
-57 -42 0
-70 -40 0
-71 -41 0
-72 -42 0
-82 -40 0
-83 -41 0
-84 -42 0
-97 -40 0
-98 -41 0
-99 -42 0
-118 -43 0
-119 -44 0
-120 -45 0
-127 -43 0
-128 -44 0
-129 -45 0
-52 -46 0
-53 -47 0
-54 -48 0
-55 -46 0
-56 -47 0
-57 -48 0
-58 -46 0
-59 -47 0
-60 -48 0
-67 -46 0
-68 -47 0
-69 -48 0
-61 -49 0
-62 -50 0
-63 -51 0
-70 -49 0
-71 -50 0
-72 -51 0
-73 -49 0
-74 -50 0
-75 -51 0
-100 -49 0
-101 -50 0
-102 -51 0
-124 -49 0
-125 -50 0
-126 -51 0
-133 -49 0
-134 -50 0
-135 -51 0
-103 -52 0
-104 -53 0
-105 -54 0
-139 -52 0
-140 -53 0
-141 -54 0
-127 -55 0
-128 -56 0
-129 -57 0
-145 -55 0
-146 -56 0
-147 -57 0
-121 -58 0
-122 -59 0
-123 -60 0
-142 -58 0
-143 -59 0
-144 -60 0
-103 -61 0
-104 -62 0
-105 -63 0
-109 -61 0
-110 -62 0
-111 -63 0
-124 -61 0
-125 -62 0
-126 -63 0
-106 -64 0
-107 -65 0
-108 -66 0
-115 -64 0
-116 -65 0
-117 -66 0
-118 -64 0
-119 -65 0
-120 -66 0
-130 -64 0
-131 -65 0
-132 -66 0
-103 -67 0
-104 -68 0
-105 -69 0
-124 -67 0
-125 -68 0
-126 -69 0
-133 -67 0
-134 -68 0
-135 -69 0
-139 -67 0
-140 -68 0
-141 -69 0
-133 -70 0
-134 -71 0
-135 -72 0
-139 -70 0
-140 -71 0
-141 -72 0
-115 -73 0
-116 -74 0
-117 -75 0
-118 -73 0
-119 -74 0
-120 -75 0
-136 -73 0
-137 -74 0
-138 -75 0
-106 -76 0
-107 -77 0
-108 -78 0
-127 -79 0
-128 -80 0
-129 -81 0
-127 -82 0
-128 -83 0
-129 -84 0
-112 -88 0
-113 -89 0
-114 -90 0
-127 -88 0
-128 -89 0
-129 -90 0
-148 -88 0
-149 -89 0
-150 -90 0
-115 -91 0
-116 -92 0
-117 -93 0
-133 -91 0
-134 -92 0
-135 -93 0
-118 -94 0
-119 -95 0
-120 -96 0
-121 -94 0
-122 -95 0
-123 -96 0
-148 -94 0
-149 -95 0
-150 -96 0
-103 -97 0
-104 -98 0
-105 -99 0
-130 -97 0
-131 -98 0
-132 -99 0
-136 -97 0
-137 -98 0
-138 -99 0
-148 -97 0
-149 -98 0
-150 -99 0
-115 -100 0
-116 -101 0
-117 -102 0
